WARNING: for repeatability, setting FPU to use double precision
============================[ Problem Statistics ]=============================
|                                                                             |
|  Number of variables:        274451                                         |
|  Number of clauses:          902703                                         |
|  Parse time:                   0.20 s                                       |
|                                                                             |
============================[ Search Statistics ]==============================
| Conflicts |          ORIGINAL         |          LEARNT          | Progress |
|           |    Vars  Clauses Literals |    Limit  Clauses Lit/Cl |          |
===============================================================================
|       100 |  268865   902072  2415883 |   330759       99    166 |  2.035 % |
|       250 |  268865   902072  2415883 |   363835      249     78 |  2.035 % |
|       475 |  268865   902072  2415883 |   400219      474     79 |  2.035 % |
|       812 |  268865   902072  2415883 |   440241      811     55 |  2.035 % |
|      1318 |  268865   902072  2415883 |   484265     1317     40 |  2.035 % |
|      2077 |  268865   902072  2415883 |   532691     2076     31 |  2.035 % |
|      3216 |  268865   902072  2415883 |   585961     3215     26 |  2.035 % |
|      4924 |  268863   902072  2415883 |   644557     4922     22 |  2.036 % |
|      7486 |  268863   902062  2415861 |   709012     7484     22 |  2.036 % |
|     11330 |  268855   902040  2415811 |   779914    11326     22 |  2.039 % |
|     17096 |  264909   888595  2381222 |   857905    17082     32 |  3.477 % |
===============================================================================
restarts              : 93
conflicts             : 24865          (6409 /sec)
decisions             : 154534         (0.00 % random) (39828 /sec)
propagations          : 32135969       (8282466 /sec)
conflict literals     : 707136         (25.77 % deleted)
Memory used           : 93.00 MB
CPU time              : 3.88 s

UNSATISFIABLE
